c Reduced graph for GEOM120a generated by Cyril Grelier
p edge 120 1434
e 1 2
e 1 3
e 1 5
e 1 6
e 1 7
e 1 8
e 1 9
e 1 11
e 1 13
e 1 15
e 1 16
e 1 17
e 1 23
e 1 24
e 1 29
e 1 30
e 1 33
e 1 35
e 1 38
e 1 40
e 1 46
e 1 48
e 1 49
e 1 51
e 1 56
e 1 58
e 1 61
e 1 63
e 1 67
e 1 69
e 1 71
e 1 83
e 1 100
e 1 101
e 1 113
e 2 3
e 2 5
e 2 6
e 2 7
e 2 8
e 2 9
e 2 11
e 2 13
e 2 15
e 2 16
e 2 17
e 2 23
e 2 29
e 2 30
e 2 33
e 2 35
e 2 38
e 2 40
e 2 46
e 2 47
e 2 48
e 2 49
e 2 51
e 2 56
e 2 58
e 2 61
e 2 63
e 2 67
e 2 69
e 2 71
e 2 100
e 2 101
e 2 113
e 3 5
e 3 6
e 3 7
e 3 8
e 3 9
e 3 11
e 3 13
e 3 15
e 3 16
e 3 17
e 3 23
e 3 24
e 3 29
e 3 30
e 3 33
e 3 37
e 3 38
e 3 46
e 3 48
e 3 51
e 3 56
e 3 58
e 3 63
e 3 69
e 3 71
e 3 81
e 3 83
e 3 91
e 3 99
e 3 106
e 3 107
e 3 110
e 4 5
e 4 6
e 4 11
e 4 12
e 4 15
e 4 18
e 4 24
e 4 25
e 4 27
e 4 31
e 4 37
e 4 41
e 4 42
e 4 43
e 4 44
e 4 50
e 4 52
e 4 57
e 4 59
e 4 60
e 4 64
e 4 66
e 4 68
e 4 76
e 4 78
e 4 82
e 4 85
e 4 89
e 4 90
e 4 92
e 4 96
e 4 105
e 4 112
e 5 6
e 5 7
e 5 8
e 5 9
e 5 11
e 5 12
e 5 13
e 5 15
e 5 16
e 5 17
e 5 18
e 5 23
e 5 24
e 5 25
e 5 27
e 5 30
e 5 35
e 5 37
e 5 40
e 5 41
e 5 46
e 5 48
e 5 49
e 5 60
e 5 61
e 5 67
e 5 81
e 5 85
e 5 91
e 6 7
e 6 8
e 6 9
e 6 11
e 6 12
e 6 13
e 6 15
e 6 16
e 6 17
e 6 18
e 6 23
e 6 24
e 6 25
e 6 29
e 6 30
e 6 33
e 6 35
e 6 37
e 6 41
e 6 42
e 6 46
e 6 48
e 6 57
e 6 60
e 6 81
e 6 85
e 6 91
e 6 111
e 7 8
e 7 9
e 7 10
e 7 11
e 7 13
e 7 15
e 7 16
e 7 17
e 7 22
e 7 23
e 7 29
e 7 30
e 7 33
e 7 35
e 7 38
e 7 40
e 7 46
e 7 47
e 7 48
e 7 49
e 7 56
e 7 61
e 7 63
e 7 67
e 7 100
e 7 101
e 7 113
e 8 9
e 8 11
e 8 13
e 8 15
e 8 16
e 8 17
e 8 23
e 8 24
e 8 29
e 8 30
e 8 33
e 8 38
e 8 51
e 8 56
e 8 58
e 8 63
e 8 69
e 8 71
e 8 81
e 8 83
e 8 91
e 8 99
e 8 106
e 8 107
e 8 110
e 8 115
e 9 11
e 9 13
e 9 16
e 9 17
e 9 23
e 9 29
e 9 30
e 9 33
e 9 38
e 9 48
e 9 51
e 9 56
e 9 58
e 9 63
e 9 69
e 9 71
e 9 83
e 9 99
e 9 100
e 9 101
e 9 106
e 9 107
e 9 110
e 9 113
e 9 115
e 10 14
e 10 16
e 10 19
e 10 20
e 10 21
e 10 22
e 10 34
e 10 35
e 10 36
e 10 40
e 10 46
e 10 47
e 10 48
e 10 49
e 10 61
e 10 62
e 10 67
e 10 70
e 10 74
e 10 77
e 10 84
e 10 95
e 10 97
e 10 101
e 10 102
e 10 104
e 10 108
e 10 114
e 10 117
e 10 118
e 10 119
e 11 12
e 11 13
e 11 15
e 11 16
e 11 17
e 11 18
e 11 24
e 11 25
e 11 27
e 11 30
e 11 33
e 11 35
e 11 37
e 11 41
e 11 42
e 11 46
e 11 48
e 11 57
e 11 60
e 11 81
e 11 85
e 11 91
e 11 111
e 12 15
e 12 18
e 12 24
e 12 25
e 12 27
e 12 31
e 12 35
e 12 37
e 12 41
e 12 42
e 12 43
e 12 44
e 12 50
e 12 52
e 12 57
e 12 59
e 12 60
e 12 64
e 12 66
e 12 68
e 12 76
e 12 79
e 12 80
e 12 85
e 12 89
e 12 90
e 12 92
e 12 96
e 13 15
e 13 16
e 13 17
e 13 23
e 13 24
e 13 29
e 13 30
e 13 33
e 13 38
e 13 51
e 13 56
e 13 58
e 13 69
e 13 71
e 13 81
e 13 83
e 13 91
e 13 99
e 13 106
e 13 107
e 13 110
e 13 115
e 14 19
e 14 20
e 14 21
e 14 22
e 14 26
e 14 27
e 14 28
e 14 32
e 14 34
e 14 35
e 14 36
e 14 40
e 14 45
e 14 49
e 14 53
e 14 54
e 14 55
e 14 61
e 14 62
e 14 65
e 14 67
e 14 70
e 14 73
e 14 74
e 14 77
e 14 84
e 14 86
e 14 87
e 14 88
e 14 98
e 15 16
e 15 17
e 15 18
e 15 24
e 15 25
e 15 27
e 15 30
e 15 35
e 15 37
e 15 40
e 15 41
e 15 46
e 15 48
e 15 49
e 15 57
e 15 60
e 15 61
e 15 81
e 15 85
e 15 91
e 16 17
e 16 22
e 16 23
e 16 29
e 16 30
e 16 35
e 16 38
e 16 40
e 16 46
e 16 47
e 16 48
e 16 49
e 16 56
e 16 61
e 16 63
e 16 67
e 16 100
e 16 101
e 16 113
e 17 23
e 17 24
e 17 29
e 17 30
e 17 33
e 17 35
e 17 37
e 17 38
e 17 41
e 17 46
e 17 48
e 17 49
e 17 51
e 17 60
e 17 63
e 17 71
e 17 81
e 17 91
e 18 24
e 18 25
e 18 31
e 18 37
e 18 41
e 18 42
e 18 43
e 18 44
e 18 50
e 18 52
e 18 57
e 18 59
e 18 60
e 18 64
e 18 78
e 18 81
e 18 82
e 18 85
e 18 89
e 18 90
e 18 105
e 18 111
e 18 112
e 18 116
e 19 20
e 19 21
e 19 22
e 19 26
e 19 27
e 19 28
e 19 32
e 19 34
e 19 35
e 19 36
e 19 39
e 19 40
e 19 45
e 19 49
e 19 53
e 19 54
e 19 55
e 19 61
e 19 65
e 19 67
e 19 70
e 19 73
e 19 74
e 19 77
e 19 86
e 19 87
e 19 88
e 19 98
e 20 21
e 20 22
e 20 26
e 20 27
e 20 28
e 20 32
e 20 34
e 20 35
e 20 36
e 20 40
e 20 45
e 20 46
e 20 48
e 20 49
e 20 53
e 20 54
e 20 55
e 20 61
e 20 62
e 20 65
e 20 67
e 20 70
e 20 73
e 20 74
e 20 77
e 20 84
e 20 88
e 21 22
e 21 26
e 21 27
e 21 28
e 21 32
e 21 34
e 21 35
e 21 36
e 21 39
e 21 40
e 21 45
e 21 46
e 21 48
e 21 49
e 21 53
e 21 54
e 21 55
e 21 61
e 21 65
e 21 67
e 21 70
e 21 73
e 21 74
e 21 77
e 21 87
e 21 88
e 22 34
e 22 35
e 22 36
e 22 40
e 22 46
e 22 47
e 22 48
e 22 49
e 22 61
e 22 62
e 22 67
e 22 70
e 22 74
e 22 77
e 22 84
e 22 95
e 22 97
e 22 102
e 22 104
e 22 108
e 22 114
e 22 117
e 22 118
e 23 29
e 23 30
e 23 33
e 23 38
e 23 40
e 23 46
e 23 47
e 23 48
e 23 49
e 23 51
e 23 56
e 23 58
e 23 63
e 23 69
e 23 71
e 23 83
e 23 100
e 23 101
e 23 113
e 24 25
e 24 27
e 24 30
e 24 31
e 24 35
e 24 37
e 24 41
e 24 42
e 24 46
e 24 48
e 24 50
e 24 57
e 24 60
e 24 81
e 24 85
e 24 91
e 24 111
e 24 116
e 25 31
e 25 37
e 25 41
e 25 42
e 25 43
e 25 44
e 25 50
e 25 52
e 25 57
e 25 59
e 25 60
e 25 64
e 25 78
e 25 81
e 25 82
e 25 85
e 25 89
e 25 90
e 25 105
e 25 111
e 25 112
e 25 116
e 26 27
e 26 28
e 26 32
e 26 34
e 26 36
e 26 39
e 26 45
e 26 53
e 26 54
e 26 55
e 26 65
e 26 66
e 26 68
e 26 72
e 26 73
e 26 75
e 26 80
e 26 86
e 26 87
e 26 88
e 26 93
e 26 94
e 26 98
e 26 103
e 26 109
e 27 28
e 27 30
e 27 32
e 27 35
e 27 37
e 27 39
e 27 40
e 27 46
e 27 48
e 27 49
e 27 52
e 27 61
e 27 66
e 27 67
e 27 68
e 27 76
e 27 80
e 27 93
e 28 32
e 28 35
e 28 39
e 28 45
e 28 53
e 28 54
e 28 55
e 28 66
e 28 68
e 28 72
e 28 73
e 28 75
e 28 76
e 28 79
e 28 80
e 28 86
e 28 87
e 28 93
e 28 94
e 28 98
e 28 103
e 28 109
e 28 120
e 29 30
e 29 33
e 29 38
e 29 51
e 29 56
e 29 58
e 29 63
e 29 69
e 29 71
e 29 83
e 29 99
e 29 100
e 29 101
e 29 106
e 29 107
e 29 110
e 29 113
e 29 115
e 30 33
e 30 35
e 30 37
e 30 40
e 30 41
e 30 46
e 30 48
e 30 49
e 30 61
e 30 63
e 30 67
e 31 37
e 31 41
e 31 42
e 31 43
e 31 44
e 31 50
e 31 52
e 31 57
e 31 59
e 31 60
e 31 64
e 31 66
e 31 68
e 31 76
e 31 78
e 31 79
e 31 82
e 31 89
e 31 90
e 31 92
e 31 96
e 31 105
e 31 112
e 32 39
e 32 45
e 32 53
e 32 54
e 32 55
e 32 66
e 32 68
e 32 72
e 32 73
e 32 75
e 32 79
e 32 80
e 32 86
e 32 87
e 32 88
e 32 93
e 32 94
e 32 98
e 32 103
e 32 109
e 32 120
e 33 38
e 33 51
e 33 56
e 33 58
e 33 63
e 33 69
e 33 71
e 33 81
e 33 83
e 33 91
e 33 99
e 33 106
e 33 107
e 33 110
e 33 115
e 34 36
e 34 40
e 34 45
e 34 47
e 34 49
e 34 53
e 34 54
e 34 61
e 34 62
e 34 65
e 34 67
e 34 70
e 34 74
e 34 77
e 34 84
e 34 88
e 34 95
e 34 97
e 34 102
e 34 104
e 34 108
e 35 36
e 35 40
e 35 46
e 35 48
e 35 49
e 35 61
e 35 66
e 35 67
e 36 40
e 36 45
e 36 49
e 36 53
e 36 54
e 36 55
e 36 61
e 36 62
e 36 65
e 36 67
e 36 70
e 36 74
e 36 77
e 36 84
e 36 88
e 36 95
e 36 97
e 36 102
e 36 104
e 37 41
e 37 42
e 37 43
e 37 44
e 37 46
e 37 50
e 37 52
e 37 57
e 37 60
e 37 81
e 37 85
e 37 91
e 37 111
e 37 116
e 38 51
e 38 56
e 38 58
e 38 63
e 38 69
e 38 71
e 38 83
e 38 99
e 38 100
e 38 101
e 38 106
e 38 107
e 38 110
e 38 113
e 38 115
e 39 45
e 39 52
e 39 53
e 39 54
e 39 55
e 39 66
e 39 68
e 39 72
e 39 73
e 39 75
e 39 76
e 39 79
e 39 80
e 39 86
e 39 87
e 39 93
e 39 94
e 39 98
e 39 103
e 39 109
e 39 120
e 40 46
e 40 47
e 40 48
e 40 49
e 40 61
e 40 62
e 40 67
e 40 101
e 41 42
e 41 43
e 41 44
e 41 50
e 41 57
e 41 60
e 41 78
e 41 81
e 41 82
e 41 85
e 41 91
e 41 111
e 41 116
e 42 43
e 42 44
e 42 50
e 42 57
e 42 60
e 42 78
e 42 81
e 42 82
e 42 85
e 42 89
e 42 90
e 42 91
e 42 105
e 42 111
e 42 112
e 42 116
e 43 44
e 43 50
e 43 52
e 43 57
e 43 59
e 43 64
e 43 66
e 43 68
e 43 76
e 43 78
e 43 79
e 43 82
e 43 89
e 43 90
e 43 92
e 43 96
e 43 105
e 43 112
e 44 50
e 44 52
e 44 57
e 44 59
e 44 64
e 44 66
e 44 68
e 44 76
e 44 78
e 44 79
e 44 82
e 44 89
e 44 90
e 44 92
e 44 96
e 44 105
e 44 112
e 45 53
e 45 54
e 45 55
e 45 65
e 45 70
e 45 72
e 45 73
e 45 75
e 45 86
e 45 87
e 45 88
e 45 94
e 45 98
e 45 103
e 45 109
e 46 48
e 46 49
e 46 61
e 46 67
e 47 49
e 47 61
e 47 62
e 47 63
e 47 67
e 47 84
e 47 95
e 47 97
e 47 101
e 47 102
e 47 104
e 47 108
e 47 113
e 47 114
e 47 117
e 47 118
e 47 119
e 48 49
e 48 61
e 48 67
e 49 61
e 49 67
e 50 52
e 50 57
e 50 59
e 50 60
e 50 64
e 50 78
e 50 82
e 50 85
e 50 89
e 50 90
e 50 105
e 50 111
e 50 112
e 50 116
e 51 56
e 51 58
e 51 63
e 51 69
e 51 71
e 51 83
e 51 99
e 51 100
e 51 106
e 51 107
e 51 110
e 51 113
e 51 115
e 52 59
e 52 64
e 52 66
e 52 68
e 52 72
e 52 76
e 52 79
e 52 80
e 52 89
e 52 90
e 52 92
e 52 93
e 52 96
e 53 54
e 53 55
e 53 65
e 53 70
e 53 73
e 53 74
e 53 77
e 53 86
e 53 87
e 53 88
e 53 94
e 53 98
e 53 109
e 54 55
e 54 65
e 54 70
e 54 73
e 54 74
e 54 75
e 54 86
e 54 87
e 54 88
e 54 94
e 54 98
e 54 109
e 55 65
e 55 72
e 55 73
e 55 75
e 55 86
e 55 87
e 55 88
e 55 93
e 55 94
e 55 98
e 55 103
e 55 109
e 56 58
e 56 63
e 56 69
e 56 71
e 56 83
e 56 99
e 56 100
e 56 101
e 56 106
e 56 110
e 56 113
e 57 60
e 57 78
e 57 81
e 57 82
e 57 85
e 57 91
e 57 105
e 57 111
e 57 116
e 58 63
e 58 69
e 58 71
e 58 83
e 58 99
e 58 100
e 58 101
e 58 106
e 58 107
e 58 110
e 58 113
e 58 115
e 59 64
e 59 66
e 59 68
e 59 76
e 59 78
e 59 79
e 59 80
e 59 82
e 59 89
e 59 90
e 59 92
e 59 93
e 59 96
e 59 105
e 59 112
e 60 78
e 60 81
e 60 82
e 60 85
e 60 91
e 60 111
e 60 116
e 61 67
e 62 65
e 62 67
e 62 70
e 62 74
e 62 77
e 62 84
e 62 95
e 62 97
e 62 102
e 62 104
e 62 108
e 62 114
e 62 117
e 62 118
e 62 119
e 63 69
e 63 71
e 63 83
e 63 100
e 63 101
e 63 113
e 64 66
e 64 68
e 64 76
e 64 78
e 64 79
e 64 80
e 64 82
e 64 89
e 64 90
e 64 92
e 64 96
e 64 105
e 64 112
e 65 70
e 65 73
e 65 74
e 65 77
e 65 84
e 65 86
e 65 87
e 65 88
e 65 95
e 65 97
e 65 98
e 66 68
e 66 72
e 66 75
e 66 76
e 66 79
e 66 80
e 66 92
e 66 93
e 66 96
e 68 72
e 68 75
e 68 76
e 68 79
e 68 80
e 68 92
e 68 93
e 68 96
e 68 120
e 69 71
e 69 83
e 69 99
e 69 100
e 69 106
e 69 107
e 69 110
e 69 113
e 69 115
e 70 74
e 70 77
e 70 84
e 70 88
e 70 95
e 70 97
e 70 102
e 70 104
e 70 108
e 70 114
e 71 83
e 71 99
e 71 100
e 71 106
e 71 107
e 71 110
e 71 115
e 72 73
e 72 75
e 72 76
e 72 79
e 72 80
e 72 86
e 72 92
e 72 93
e 72 94
e 72 96
e 72 103
e 72 109
e 72 120
e 73 75
e 73 86
e 73 87
e 73 88
e 73 94
e 73 98
e 73 103
e 73 109
e 74 77
e 74 84
e 74 88
e 74 95
e 74 97
e 74 102
e 74 104
e 74 108
e 74 114
e 75 76
e 75 79
e 75 80
e 75 86
e 75 87
e 75 93
e 75 94
e 75 98
e 75 103
e 75 109
e 75 120
e 76 79
e 76 80
e 76 89
e 76 90
e 76 92
e 76 93
e 76 96
e 77 84
e 77 88
e 77 95
e 77 97
e 77 102
e 77 104
e 77 108
e 77 114
e 77 119
e 78 82
e 78 85
e 78 89
e 78 90
e 78 105
e 78 111
e 78 112
e 78 116
e 79 80
e 79 92
e 79 93
e 79 96
e 79 103
e 79 120
e 80 92
e 80 93
e 80 94
e 80 96
e 80 103
e 80 120
e 81 85
e 81 91
e 81 111
e 81 116
e 82 85
e 82 89
e 82 90
e 82 105
e 82 111
e 82 112
e 82 116
e 83 99
e 83 100
e 83 106
e 83 107
e 83 110
e 83 115
e 84 95
e 84 97
e 84 102
e 84 104
e 84 108
e 84 114
e 84 117
e 84 118
e 84 119
e 85 91
e 85 111
e 85 116
e 86 87
e 86 88
e 86 94
e 86 98
e 86 103
e 86 109
e 87 88
e 87 94
e 87 98
e 87 103
e 87 109
e 88 98
e 89 90
e 89 92
e 89 96
e 89 105
e 89 112
e 90 92
e 90 96
e 90 105
e 90 112
e 91 107
e 91 111
e 91 116
e 92 93
e 92 96
e 92 105
e 92 112
e 93 94
e 93 96
e 93 103
e 93 120
e 94 98
e 94 103
e 94 109
e 94 120
e 95 97
e 95 102
e 95 104
e 95 108
e 95 114
e 95 117
e 95 118
e 95 119
e 96 120
e 97 102
e 97 104
e 97 108
e 97 114
e 97 117
e 97 118
e 97 119
e 98 103
e 98 109
e 99 100
e 99 106
e 99 107
e 99 110
e 99 115
e 100 101
e 100 113
e 101 113
e 101 117
e 101 118
e 102 104
e 102 108
e 102 114
e 102 117
e 102 118
e 102 119
e 103 109
e 103 120
e 104 108
e 104 114
e 104 117
e 104 118
e 104 119
e 105 112
e 106 107
e 106 110
e 106 115
e 107 110
e 107 115
e 108 114
e 108 117
e 108 118
e 108 119
e 109 120
e 110 115
e 111 116
e 114 117
e 114 118
e 114 119
e 117 118
e 117 119
e 118 119
